p cnf 27 59
-1 -2 -3 6 24 0 
-4 7 19 -2 25 0 
-3 6 24 0 
-5 -6 3 -4 7 19 -2 25 0 
-2 -7 4 19 24 0 
-8 11 -2 26 0 
-9 -7 4 19 24 0 
-4 7 19 24 0 
-10 12 24 0 
-8 11 26 0 
-11 8 25 0 
-12 10 26 0 
-13 -9 -14 26 0 
-13 -2 -6 3 26 0 
-7 4 19 24 0 
-15 -9 -16 24 0 
-5 -4 7 19 -3 6 25 0 
-16 24 0 
-9 -13 -17 24 0 
-8 11 -2 -1 -12 10 26 0 
-8 11 -12 10 26 0 
-8 11 -9 -18 -12 10 26 0 
-1 -15 -8 11 26 0 
-19 4 7 -2 -12 10 26 0 
-20 24 0 
-5 -15 -7 4 19 24 0 
-5 -15 -8 11 -12 10 26 0 
-8 11 -15 -12 10 26 0 
-13 -18 -20 24 0 
-5 -18 -7 4 19 24 0 
-8 11 -12 10 -14 26 0 
-10 12 -4 7 19 25 0 
-21 22 -4 7 19 -17 25 0 
-8 11 -18 -2 -12 10 26 0 
-1 -21 22 -20 24 0 
-13 -15 -7 4 19 24 0 
-12 10 -19 4 7 25 0 
-6 3 -12 10 26 0 
-2 -10 12 -1 -7 4 19 -6 3 25 0 
-9 -18 -2 -7 4 19 24 0 
-15 -12 10 26 0 
-10 12 -2 25 0 
-8 11 -2 -14 26 0 
-13 -9 -3 6 24 0 
-13 -5 -7 4 19 24 0 
-8 11 -12 10 -13 -15 -14 26 0 
-21 22 -14 26 0 
-15 -9 -3 6 24 0 
-12 10 27 0 
-15 -9 -12 10 26 0 
-9 -12 10 -2 -14 26 0 
-12 10 -2 -15 -9 -19 4 7 26 0 
-5 -1 -16 24 0 
-2 -5 -18 -7 4 19 24 0 
-18 -2 -16 24 0 
-1 -9 -19 4 7 25 0 
-8 11 -2 -12 10 26 0 
-22 21 25 0 
-23 25 0 
